0 9 60 29 91 17 24 85 15 99
9 0 58 14 51 2 70 94 48 12
60 58 0 83 48 16 86 29 6 22
29 14 83 0 89 83 98 89 22 54
91 51 48 89 0 43 34 78 8 54
17 2 16 83 43 0 56 18 20 95
24 70 86 98 34 56 0 71 58 39
85 94 29 89 78 18 71 0 66 50
15 48 6 22 8 20 58 66 0 1
99 12 22 54 54 95 39 50 1 0
